 #  Kernite                                         
 LATTICE_MATRIX_
    7.017200    0.000000    0.000000
    0.000000    9.158200    0.000000
   -5.068086    0.000000   14.835611
 END_LATTICE_MATRIX_
 ATOMIC_SPECIES_CHARGES_
   1          Na             1.0
   2          Na             1.0
   3          B              3.0
   4          B              3.0
   5          B              3.0
   6          B              3.0
   7          O             -2.0
   8          O             -2.0
   9          O             -2.0
  10          O             -2.0
  11          O             -2.0
  12          O             -2.0
  13          O             -2.0
  14          O             -2.0
  15          O             -2.0
  16          O             -2.0
  17          O             -2.0
  18          H              1.0
  19          H              1.0
  20          H              1.0
  21          H              1.0
  22          H              1.0
  23          H              1.0
  24          H              1.0
  25          H              1.0
 END_ATOMIC_SPECIES_CHARGES_
 ATOMIC_POSITIONS_OCCUPANCY_
      1    0.319400    0.464860    0.310970      1.000000
      1    0.680600    0.964860    0.189030      1.000000
      1    0.680600    0.535140    0.689030      1.000000
      1    0.319400    0.035140    0.810970      1.000000
      2    0.185590    0.366360    0.072460      1.000000
      2    0.814410    0.866360    0.427540      1.000000
      2    0.814410    0.633640    0.927540      1.000000
      2    0.185590    0.133640    0.572460      1.000000
      3    0.552950    0.167740    0.421550      1.000000
      3    0.447050    0.667740    0.078450      1.000000
      3    0.447050    0.832260    0.578450      1.000000
      3    0.552950    0.332260    0.921550      1.000000
      4    0.553250    0.232690    0.268840      1.000000
      4    0.446750    0.732690    0.231160      1.000000
      4    0.446750    0.767310    0.731160      1.000000
      4    0.553250    0.267310    0.768840      1.000000
      5    0.574000    0.480410    0.199690      1.000000
      5    0.426000    0.980410    0.300310      1.000000
      5    0.426000    0.519590    0.800310      1.000000
      5    0.574000    0.019590    0.699690      1.000000
      6    0.868210    0.313930    0.241810      1.000000
      6    0.131790    0.813930    0.258190      1.000000
      6    0.131790    0.686070    0.758190      1.000000
      6    0.868210    0.186070    0.741810      1.000000
      7    0.512590    0.025110    0.397230      1.000000
      7    0.487410    0.525110    0.102770      1.000000
      7    0.487410    0.974890    0.602770      1.000000
      7    0.512590    0.474890    0.897230      1.000000
      8    0.440330    0.098850    0.240930      1.000000
      8    0.559670    0.598850    0.259070      1.000000
      8    0.559670    0.901150    0.759070      1.000000
      8    0.440330    0.401150    0.740930      1.000000
      9    0.767280    0.205930    0.268520      1.000000
      9    0.232720    0.705930    0.231480      1.000000
      9    0.232720    0.794070    0.731480      1.000000
      9    0.767280    0.294070    0.768520      1.000000
     10    0.464980    0.350910    0.208920      1.000000
     10    0.535020    0.850910    0.291080      1.000000
     10    0.535020    0.649090    0.791080      1.000000
     10    0.464980    0.149090    0.708920      1.000000
     11    0.791540    0.448460    0.215390      1.000000
     11    0.208460    0.948460    0.284610      1.000000
     11    0.208460    0.551540    0.784610      1.000000
     11    0.791540    0.051540    0.715390      1.000000
     12    0.062260    0.290590    0.240560      1.000000
     12    0.937740    0.790590    0.259440      1.000000
     12    0.937740    0.709410    0.759440      1.000000
     12    0.062260    0.209410    0.740560      1.000000
     13    0.584950    0.293930    0.010120      1.000000
     13    0.415050    0.793930    0.489880      1.000000
     13    0.415050    0.706070    0.989880      1.000000
     13    0.584950    0.206070    0.510120      1.000000
     14    0.775570    0.033100    0.068110      1.000000
     14    0.224430    0.533100    0.431890      1.000000
     14    0.224430    0.966900    0.931890      1.000000
     14    0.775570    0.466900    0.568110      1.000000
     15    0.565380    0.272560    0.363020      1.000000
     15    0.434620    0.772560    0.136980      1.000000
     15    0.434620    0.727440    0.636980      1.000000
     15    0.565380    0.227440    0.863020      1.000000
     16    0.038860    0.062270    0.415160      1.000000
     16    0.961140    0.562270    0.084840      1.000000
     16    0.961140    0.937730    0.584840      1.000000
     16    0.038860    0.437730    0.915160      1.000000
     17    0.167320    0.117270    0.076390      1.000000
     17    0.832680    0.617270    0.423610      1.000000
     17    0.832680    0.882730    0.923610      1.000000
     17    0.167320    0.382730    0.576390      1.000000
     18    0.236700    0.100800    0.131500      1.000000
     18    0.763300    0.600800    0.368500      1.000000
     18    0.763300    0.899200    0.868500      1.000000
     18    0.236700    0.399200    0.631500      1.000000
     19    0.103900    0.197100    0.250900      1.000000
     19    0.896100    0.697100    0.249100      1.000000
     19    0.896100    0.802900    0.749100      1.000000
     19    0.103900    0.302900    0.750900      1.000000
     20    0.957100    0.111300    0.378100      1.000000
     20    0.042900    0.611300    0.121900      1.000000
     20    0.042900    0.888700    0.621900      1.000000
     20    0.957100    0.388700    0.878100      1.000000
     21    0.565200    0.367500    0.040400      1.000000
     21    0.434800    0.867500    0.459600      1.000000
     21    0.434800    0.632500    0.959600      1.000000
     21    0.565200    0.132500    0.540400      1.000000
     22    0.106600    0.024100    0.381700      1.000000
     22    0.893400    0.524100    0.118300      1.000000
     22    0.893400    0.975900    0.618300      1.000000
     22    0.106600    0.475900    0.881700      1.000000
     23    0.711500    0.112900    0.047400      1.000000
     23    0.288500    0.612900    0.452600      1.000000
     23    0.288500    0.887100    0.952600      1.000000
     23    0.711500    0.387100    0.547400      1.000000
     24    0.224300    0.467900    0.492500      1.000000
     24    0.775700    0.967900    0.007500      1.000000
     24    0.775700    0.532100    0.507500      1.000000
     24    0.224300    0.032100    0.992500      1.000000
     25    0.021100    0.082200    0.077300      1.000000
     25    0.978900    0.582200    0.422700      1.000000
     25    0.978900    0.917800    0.922700      1.000000
     25    0.021100    0.417800    0.577300      1.000000
 END_ATOMIC_POSITIONS_OCCUPANCY_
 WATER_IDENTIFICATION_NUMBER_
          14          16          17
 END_WATER_IDENTIFICATION_NUMBER_
 HYDROGEN_IDENTIFICATION_NUMBER_
          23          24          20          22          18          25
 END_HYDROGEN_IDENTIFICATION_NUMBER_
 WATER_MODEL_
 0
 END_WATER_MODEL_
#          72          14
 SYMMETRY_OPERATORS_
   0	 0.00000     0.00000     0.00000     0.00000
   1     1.00000     0.00000     0.00000     0.00000
   1     0.00000     1.00000     0.00000     0.00000
   1     0.00000     0.00000     1.00000     0.00000
   2    -1.00000     0.00000     0.00000     0.00000
   2     0.00000     1.00000     0.00000     0.50000
   2     0.00000     0.00000    -1.00000     0.50000
   3    -1.00000     0.00000     0.00000     0.00000
   3     0.00000    -1.00000     0.00000     0.00000
   3     0.00000     0.00000    -1.00000     0.00000
   4     1.00000     0.00000     0.00000     0.00000
   4     0.00000    -1.00000     0.00000     0.50000
   4     0.00000     0.00000     1.00000     0.50000
 END_SYMMETRY_OPERATORS_
PARAMETERS_
Threshold=0.00005
Max_Angle=0.5
Min_Angle=0.005
Seed=12345
Iteration=1
END_PARAMETERS_
