 #  Grimselite                                      
 LATTICE_MATRIX_
    9.302000    0.000000    0.000000
   -4.651000    8.055768    0.000000
    0.000000    0.000000    8.260000
 END_LATTICE_MATRIX_
 ATOMIC_SPECIES_CHARGES_
   1          U              6.0
   2          K              1.0
   3          Na             1.0
   4          O             -2.0
   5          O             -2.0
   6          O             -2.0
   7          O             -2.0
   8          O             -2.0
   9          C              4.0
 END_ATOMIC_SPECIES_CHARGES_
 ATOMIC_POSITIONS_OCCUPANCY_
      1    0.666700    0.333300    0.750000      1.000000
      1    0.333300    0.666700    0.250000      1.000000
      2    0.292100    0.000000    0.000000      1.000000
      2    0.000000    0.292100    0.000000      1.000000
      2    0.707900    0.707900    0.000000      1.000000
      2    0.292100    0.000000    0.500000      1.000000
      2    0.000000    0.292100    0.500000      1.000000
      2    0.707900    0.707900    0.500000      1.000000
      3    0.333300    0.666700    0.750000      1.000000
      3    0.666700    0.333300    0.250000      1.000000
      4    0.969400    0.479700    0.750000      1.000000
      4    0.520300    0.489700    0.750000      1.000000
      4    0.510300    0.030600    0.750000      1.000000
      4    0.479700    0.969400    0.250000      1.000000
      4    0.489700    0.520300    0.250000      1.000000
      4    0.030600    0.510300    0.250000      1.000000
      5    0.848500    0.631500    0.750000      1.000000
      5    0.368500    0.217000    0.750000      1.000000
      5    0.783000    0.151500    0.750000      1.000000
      5    0.631500    0.848500    0.250000      1.000000
      5    0.217000    0.368500    0.250000      1.000000
      5    0.151500    0.783000    0.250000      1.000000
      6    0.666700    0.333300    0.967300      1.000000
      6    0.666700    0.333300    0.532700      1.000000
      6    0.333300    0.666700    0.032700      1.000000
      6    0.333300    0.666700    0.467300      1.000000
      7    0.127400    0.757100    0.750000      1.000000
      7    0.242900    0.370300    0.750000      1.000000
      7    0.629700    0.872600    0.750000      1.000000
      7    0.757100    0.127400    0.250000      1.000000
      7    0.370300    0.242900    0.250000      1.000000
      7    0.872600    0.629700    0.250000      1.000000
      8    0.000000    0.000000    0.127700      1.000000
      8    0.000000    0.000000    0.627700      1.000000
      9    0.988300    0.628200    0.750000      1.000000
      9    0.371800    0.360100    0.750000      1.000000
      9    0.639900    0.011700    0.750000      1.000000
      9    0.628200    0.988300    0.250000      1.000000
      9    0.360100    0.371800    0.250000      1.000000
      9    0.011700    0.639900    0.250000      1.000000
 END_ATOMIC_POSITIONS_OCCUPANCY_
 WATER_IDENTIFICATION_NUMBER_
 8
 END_WATER_IDENTIFICATION_NUMBER_
 HYDROGEN_IDENTIFICATION_NUMBER_
 0
 END_HYDROGEN_IDENTIFICATION_NUMBER_
 WATER_MODEL_
 2
 END_WATER_MODEL_
#	456	190
 SYMMETRY_OPERATORS_
   0	 0.00000     0.00000     0.00000     0.00000
   1     1.00000     0.00000     0.00000     0.00000
   1     0.00000     1.00000     0.00000     0.00000
   1     0.00000     0.00000     1.00000     0.00000
   2     0.00000    -1.00000     0.00000     0.00000
   2     1.00000    -1.00000     0.00000     0.00000
   2     0.00000     0.00000     1.00000     0.00000
   3    -1.00000     1.00000     0.00000     0.00000
   3    -1.00000     0.00000     0.00000     0.00000
   3     0.00000     0.00000     1.00000     0.00000
   4     1.00000     0.00000     0.00000     0.00000
   4     0.00000     1.00000     0.00000     0.00000
   4     0.00000     0.00000    -1.00000     0.50000
   5     0.00000    -1.00000     0.00000     0.00000
   5     1.00000    -1.00000     0.00000     0.00000
   5     0.00000     0.00000    -1.00000     0.50000
   6    -1.00000     1.00000     0.00000     0.00000
   6    -1.00000     0.00000     0.00000     0.00000
   6     0.00000     0.00000    -1.00000     0.50000
   7     0.00000     1.00000     0.00000     0.00000
   7     1.00000     0.00000     0.00000     0.00000
   7     0.00000     0.00000    -1.00000     0.00000
   8     1.00000    -1.00000     0.00000     0.00000
   8     0.00000    -1.00000     0.00000     0.00000
   8     0.00000     0.00000    -1.00000     0.00000
   9    -1.00000     0.00000     0.00000     0.00000
   9    -1.00000     1.00000     0.00000     0.00000
   9     0.00000     0.00000    -1.00000     0.00000
  10     0.00000     1.00000     0.00000     0.00000
  10     1.00000     0.00000     0.00000     0.00000
  10     0.00000     0.00000     1.00000     0.50000
  11     1.00000    -1.00000     0.00000     0.00000
  11     0.00000    -1.00000     0.00000     0.00000
  11     0.00000     0.00000     1.00000     0.50000
  12    -1.00000     0.00000     0.00000     0.00000
  12    -1.00000     1.00000     0.00000     0.00000
  12     0.00000     0.00000     1.00000     0.50000
 END_SYMMETRY_OPERATORS_
PARAMETERS_
Threshold=0.00005
Max_Angle=0.5
Min_Angle=0.005
Seed=1235
Iteration=1
END_PARAMETERS_
