 #  Haidingerite                                    
 LATTICE_MATRIX_
    6.904000    0.000000    0.000000
    0.000000   16.160999    0.000000
    0.000000    0.000000    7.935000
 END_LATTICE_MATRIX_
 ATOMIC_SPECIES_CHARGES_
   1          Ca             2.0
   2          As             5.0
   3          O             -2.0
   4          O             -2.0
   5          O             -2.0
   6          O             -2.0
   7          O             -2.0
   8          H              1.0
   9          H              1.0
  10          H              1.0
 END_ATOMIC_SPECIES_CHARGES_
 ATOMIC_POSITIONS_OCCUPANCY_
      1    0.625000    0.047100    0.182900      1.000000
      1    0.875000    0.547100    0.317100      1.000000
      1    0.375000    0.452900    0.182900      1.000000
      1    0.125000    0.952900    0.317100      1.000000
      1    0.375000    0.952900    0.817100      1.000000
      1    0.125000    0.452900    0.682900      1.000000
      1    0.625000    0.547100    0.817100      1.000000
      1    0.875000    0.047100    0.682900      1.000000
      2    0.127700    0.109000    0.059000      1.000000
      2    0.372300    0.609000    0.441000      1.000000
      2    0.872300    0.391000    0.059000      1.000000
      2    0.627700    0.891000    0.441000      1.000000
      2    0.872300    0.891000    0.941000      1.000000
      2    0.627700    0.391000    0.559000      1.000000
      2    0.127700    0.609000    0.941000      1.000000
      2    0.372300    0.109000    0.559000      1.000000
      3    0.219000    0.199600    0.143800      1.000000
      3    0.281000    0.699600    0.356200      1.000000
      3    0.781000    0.300400    0.143800      1.000000
      3    0.719000    0.800400    0.356200      1.000000
      3    0.781000    0.800400    0.856200      1.000000
      3    0.719000    0.300400    0.643800      1.000000
      3    0.219000    0.699600    0.856200      1.000000
      3    0.281000    0.199600    0.643800      1.000000
      4    0.962800    0.073600    0.192800      1.000000
      4    0.537200    0.573600    0.307200      1.000000
      4    0.037200    0.426400    0.192800      1.000000
      4    0.462800    0.926400    0.307200      1.000000
      4    0.037200    0.926400    0.807200      1.000000
      4    0.462800    0.426400    0.692800      1.000000
      4    0.962800    0.573600    0.807200      1.000000
      4    0.537200    0.073600    0.692800      1.000000
      5    0.048300    0.132000    0.867600      1.000000
      5    0.451700    0.632000    0.632400      1.000000
      5    0.951700    0.368000    0.867600      1.000000
      5    0.548300    0.868000    0.632400      1.000000
      5    0.951700    0.868000    0.132400      1.000000
      5    0.548300    0.368000    0.367600      1.000000
      5    0.048300    0.632000    0.132400      1.000000
      5    0.451700    0.132000    0.367600      1.000000
      6    0.302900    0.035900    0.059400      1.000000
      6    0.197100    0.535900    0.440600      1.000000
      6    0.697100    0.464100    0.059400      1.000000
      6    0.802900    0.964100    0.440600      1.000000
      6    0.697100    0.964100    0.940600      1.000000
      6    0.802900    0.464100    0.559400      1.000000
      6    0.302900    0.535900    0.940600      1.000000
      6    0.197100    0.035900    0.559400      1.000000
      7    0.622300    0.159500    0.992400      1.000000
      7    0.877700    0.659500    0.507600      1.000000
      7    0.377700    0.340500    0.992400      1.000000
      7    0.122300    0.840500    0.507600      1.000000
      7    0.377700    0.840500    0.007600      1.000000
      7    0.122300    0.340500    0.492400      1.000000
      7    0.622300    0.659500    0.007600      1.000000
      7    0.877700    0.159500    0.492400      1.000000
      8    0.312100    0.183400    0.234200      1.000000
      8    0.187900    0.683400    0.265800      1.000000
      8    0.687900    0.316600    0.234200      1.000000
      8    0.812100    0.816600    0.265800      1.000000
      8    0.687900    0.816600    0.765800      1.000000
      8    0.812100    0.316600    0.734200      1.000000
      8    0.312100    0.683400    0.765800      1.000000
      8    0.187900    0.183400    0.734200      1.000000
      9    0.684400    0.211300    0.011100      1.000000
      9    0.815600    0.711300    0.488900      1.000000
      9    0.315600    0.288700    0.011100      1.000000
      9    0.184400    0.788700    0.488900      1.000000
      9    0.315600    0.788700    0.988900      1.000000
      9    0.184400    0.288700    0.511100      1.000000
      9    0.684400    0.711300    0.988900      1.000000
      9    0.815600    0.211300    0.511100      1.000000
     10    0.580600    0.152200    0.880100      1.000000
     10    0.919400    0.652200    0.619900      1.000000
     10    0.419400    0.347800    0.880100      1.000000
     10    0.080600    0.847800    0.619900      1.000000
     10    0.419400    0.847800    0.119900      1.000000
     10    0.080600    0.347800    0.380100      1.000000
     10    0.580600    0.652200    0.119900      1.000000
     10    0.919400    0.152200    0.380100      1.000000
 END_ATOMIC_POSITIONS_OCCUPANCY_
 WATER_IDENTIFICATION_NUMBER_
           7
 END_WATER_IDENTIFICATION_NUMBER_
 HYDROGEN_IDENTIFICATION_NUMBER_
           9          10
 END_HYDROGEN_IDENTIFICATION_NUMBER_
 WATER_MODEL_
 0
 END_WATER_MODEL_
#         271          60
 SYMMETRY_OPERATORS_
   0	 0.00000     0.00000     0.00000     0.00000
   1     1.00000     0.00000     0.00000     0.00000
   1     0.00000     1.00000     0.00000     0.00000
   1     0.00000     0.00000     1.00000     0.00000
   2    -1.00000     0.00000     0.00000     0.50000
   2     0.00000     1.00000     0.00000     0.50000
   2     0.00000     0.00000    -1.00000     0.50000
   3    -1.00000     0.00000     0.00000     0.00000
   3     0.00000    -1.00000     0.00000     0.50000
   3     0.00000     0.00000     1.00000     0.00000
   4     1.00000     0.00000     0.00000     0.50000
   4     0.00000    -1.00000     0.00000     0.00000
   4     0.00000     0.00000    -1.00000     0.50000
   5    -1.00000     0.00000     0.00000     0.00000
   5     0.00000    -1.00000     0.00000     0.00000
   5     0.00000     0.00000    -1.00000     0.00000
   6     1.00000     0.00000     0.00000     0.50000
   6     0.00000    -1.00000     0.00000     0.50000
   6     0.00000     0.00000     1.00000     0.50000
   7     1.00000     0.00000     0.00000     0.00000
   7     0.00000     1.00000     0.00000     0.50000
   7     0.00000     0.00000    -1.00000     0.00000
   8    -1.00000     0.00000     0.00000     0.50000
   8     0.00000     1.00000     0.00000     0.00000
   8     0.00000     0.00000     1.00000     0.50000
 END_SYMMETRY_OPERATORS_
PARAMETERS_
Threshold=0.00005
Max_Angle=0.5
Min_Angle=0.005
Seed=12341
Iteration=1
END_PARAMETERS_
