 #  Ba Cl2 H2 O                                     
 LATTICE_MATRIX_
   11.123000    0.000000    0.000000
    0.000000    4.511000    0.000000
    0.000000    0.000000    9.070000
 END_LATTICE_MATRIX_
 ATOMIC_SPECIES_CHARGES_
   1          Ba             2.0
   2          Cl            -1.0
   3          Cl            -1.0
   4          O             -2.0
   5          H              1.0
   6          H              1.0
 END_ATOMIC_SPECIES_CHARGES_
 ATOMIC_POSITIONS_OCCUPANCY_
      1    0.188300    0.250000    0.108700      1.000000
      1    0.311700    0.750000    0.608700      1.000000
      1    0.811700    0.750000    0.891300      1.000000
      1    0.688300    0.250000    0.391300      1.000000
      2    0.101800    0.750000    0.882100      1.000000
      2    0.398200    0.250000    0.382100      1.000000
      2    0.898200    0.250000    0.117900      1.000000
      2    0.601800    0.750000    0.617900      1.000000
      3    0.123300    0.750000    0.335800      1.000000
      3    0.376700    0.250000    0.835800      1.000000
      3    0.876700    0.250000    0.664200      1.000000
      3    0.623300    0.750000    0.164200      1.000000
      4    0.345700    0.750000    0.103200      1.000000
      4    0.154300    0.250000    0.603200      1.000000
      4    0.654300    0.250000    0.896800      1.000000
      4    0.845700    0.750000    0.396800      1.000000
      5    0.408100    0.750000    0.162000      1.000000
      5    0.091900    0.250000    0.662000      1.000000
      5    0.591900    0.250000    0.838000      1.000000
      5    0.908100    0.750000    0.338000      1.000000
      6    0.391000    0.750000    0.010900      1.000000
      6    0.109000    0.250000    0.510900      1.000000
      6    0.609000    0.250000    0.989100      1.000000
      6    0.891000    0.750000    0.489100      1.000000
 END_ATOMIC_POSITIONS_OCCUPANCY_
 WATER_IDENTIFICATION_NUMBER_
           4
 END_WATER_IDENTIFICATION_NUMBER_
 HYDROGEN_IDENTIFICATION_NUMBER_
           5           6
 END_HYDROGEN_IDENTIFICATION_NUMBER_
 WATER_MODEL_
 0
 END_WATER_MODEL_
 SYMMETRY_OPERATORS_
   0	 0.00000     0.00000     0.00000     0.00000
   1     1.00000     0.00000     0.00000     0.00000
   1     0.00000     1.00000     0.00000     0.00000
   1     0.00000     0.00000     1.00000     0.00000
   2    -1.00000     0.00000     0.00000     0.50000
   2     0.00000    -1.00000     0.00000     0.00000
   2     0.00000     0.00000     1.00000     0.50000
   3    -1.00000     0.00000     0.00000     0.00000
   3     0.00000     1.00000     0.00000     0.50000
   3     0.00000     0.00000    -1.00000     0.00000
   4     1.00000     0.00000     0.00000     0.50000
   4     0.00000    -1.00000     0.00000     0.50000
   4     0.00000     0.00000    -1.00000     0.50000
   5    -1.00000     0.00000     0.00000     0.00000
   5     0.00000    -1.00000     0.00000     0.00000
   5     0.00000     0.00000    -1.00000     0.00000
   6     1.00000     0.00000     0.00000     0.50000
   6     0.00000     1.00000     0.00000     0.00000
   6     0.00000     0.00000    -1.00000     0.50000
   7     1.00000     0.00000     0.00000     0.00000
   7     0.00000    -1.00000     0.00000     0.50000
   7     0.00000     0.00000     1.00000     0.00000
   8    -1.00000     0.00000     0.00000     0.50000
   8     0.00000     1.00000     0.00000     0.50000
   8     0.00000     0.00000     1.00000     0.50000
 END_SYMMETRY_OPERATORS_
PARAMETERS_
Threshold=0.00005
Max_Angle=0.5
Min_Angle=0.005
Seed=12345
Iteration=1
END_PARAMETERS_
