 #  Fluorapophyllite-(K)                            
 LATTICE_MATRIX_
    8.960000    0.000000    0.000000
    0.000000    8.960000    0.000000
    0.000000    0.000000   15.800000
 END_LATTICE_MATRIX_
 ATOMIC_SPECIES_CHARGES_
   1          K              1.0
   2          Ca             2.0
   3          Si             4.0
   4          O             -2.0
   5          O             -2.0
   6          O             -2.0
   7          F             -1.0
   8          O             -2.0
   9          H              1.0
  10          H              1.0
  11          H              1.0
 END_ATOMIC_SPECIES_CHARGES_
 ATOMIC_POSITIONS_OCCUPANCY_
      1    0.000000    0.000000    0.500000      1.000000
      1    0.500000    0.500000    0.000000      1.000000
      2    0.111000    0.247300    0.000000      1.000000
      2    0.889000    0.752700    0.000000      1.000000
      2    0.752700    0.111000    0.000000      1.000000
      2    0.247300    0.889000    0.000000      1.000000
      2    0.389000    0.747300    0.500000      1.000000
      2    0.611000    0.252700    0.500000      1.000000
      2    0.747300    0.611000    0.500000      1.000000
      2    0.252700    0.389000    0.500000      1.000000
      3    0.226700    0.086600    0.189600      1.000000
      3    0.773300    0.913400    0.189600      1.000000
      3    0.913400    0.226700    0.189600      1.000000
      3    0.086600    0.773300    0.189600      1.000000
      3    0.273300    0.586600    0.310400      1.000000
      3    0.726700    0.413400    0.310400      1.000000
      3    0.586600    0.726700    0.310400      1.000000
      3    0.413400    0.273300    0.310400      1.000000
      3    0.773300    0.913400    0.810400      1.000000
      3    0.226700    0.086600    0.810400      1.000000
      3    0.086600    0.773300    0.810400      1.000000
      3    0.913400    0.226700    0.810400      1.000000
      3    0.726700    0.413400    0.689600      1.000000
      3    0.273300    0.586600    0.689600      1.000000
      3    0.413400    0.273300    0.689600      1.000000
      3    0.586600    0.726700    0.689600      1.000000
      4    0.363600    0.136400    0.250000      1.000000
      4    0.636400    0.863600    0.250000      1.000000
      4    0.863600    0.363600    0.250000      1.000000
      4    0.136400    0.636400    0.250000      1.000000
      4    0.636400    0.863600    0.750000      1.000000
      4    0.363600    0.136400    0.750000      1.000000
      4    0.136400    0.636400    0.750000      1.000000
      4    0.863600    0.363600    0.750000      1.000000
      5    0.084600    0.189700    0.216900      1.000000
      5    0.915400    0.810300    0.216900      1.000000
      5    0.810300    0.084600    0.216900      1.000000
      5    0.189700    0.915400    0.216900      1.000000
      5    0.415400    0.689700    0.283100      1.000000
      5    0.584600    0.310300    0.283100      1.000000
      5    0.689700    0.584600    0.283100      1.000000
      5    0.310300    0.415400    0.283100      1.000000
      5    0.915400    0.810300    0.783100      1.000000
      5    0.084600    0.189700    0.783100      1.000000
      5    0.189700    0.915400    0.783100      1.000000
      5    0.810300    0.084600    0.783100      1.000000
      5    0.584600    0.310300    0.716900      1.000000
      5    0.415400    0.689700    0.716900      1.000000
      5    0.310300    0.415400    0.716900      1.000000
      5    0.689700    0.584600    0.716900      1.000000
      6    0.265700    0.101800    0.092400      1.000000
      6    0.734300    0.898200    0.092400      1.000000
      6    0.898200    0.265700    0.092400      1.000000
      6    0.101800    0.734300    0.092400      1.000000
      6    0.234300    0.601800    0.407600      1.000000
      6    0.765700    0.398200    0.407600      1.000000
      6    0.601800    0.765700    0.407600      1.000000
      6    0.398200    0.234300    0.407600      1.000000
      6    0.734300    0.898200    0.907600      1.000000
      6    0.265700    0.101800    0.907600      1.000000
      6    0.101800    0.734300    0.907600      1.000000
      6    0.898200    0.265700    0.907600      1.000000
      6    0.765700    0.398200    0.592400      1.000000
      6    0.234300    0.601800    0.592400      1.000000
      6    0.398200    0.234300    0.592400      1.000000
      6    0.601800    0.765700    0.592400      1.000000
      7    0.000000    0.000000    0.000000      1.000000
      7    0.500000    0.500000    0.500000      1.000000
      8    0.215400    0.450000    0.089300      1.000000
      8    0.784600    0.550000    0.089300      1.000000
      8    0.550000    0.215400    0.089300      1.000000
      8    0.450000    0.784600    0.089300      1.000000
      8    0.284600    0.950000    0.410700      1.000000
      8    0.715400    0.050000    0.410700      1.000000
      8    0.950000    0.715400    0.410700      1.000000
      8    0.050000    0.284600    0.410700      1.000000
      8    0.784600    0.550000    0.910700      1.000000
      8    0.215400    0.450000    0.910700      1.000000
      8    0.450000    0.784600    0.910700      1.000000
      8    0.550000    0.215400    0.910700      1.000000
      8    0.715400    0.050000    0.589300      1.000000
      8    0.284600    0.950000    0.589300      1.000000
      8    0.050000    0.284600    0.589300      1.000000
      8    0.950000    0.715400    0.589300      1.000000
      9    0.449000    0.173000    0.088900      1.000000
      9    0.551000    0.827000    0.088900      1.000000
      9    0.827000    0.449000    0.088900      1.000000
      9    0.173000    0.551000    0.088900      1.000000
      9    0.051000    0.673000    0.411100      1.000000
      9    0.949000    0.327000    0.411100      1.000000
      9    0.673000    0.949000    0.411100      1.000000
      9    0.327000    0.051000    0.411100      1.000000
      9    0.551000    0.827000    0.911100      1.000000
      9    0.449000    0.173000    0.911100      1.000000
      9    0.173000    0.551000    0.911100      1.000000
      9    0.827000    0.449000    0.911100      1.000000
      9    0.949000    0.327000    0.588900      1.000000
      9    0.051000    0.673000    0.588900      1.000000
      9    0.327000    0.051000    0.588900      1.000000
      9    0.673000    0.949000    0.588900      1.000000
     10    0.224400    0.425500    0.148100      0.875000
     10    0.775600    0.574500    0.148100      0.875000
     10    0.574500    0.224400    0.148100      0.875000
     10    0.425500    0.775600    0.148100      0.875000
     10    0.275600    0.925500    0.351900      0.875000
     10    0.724400    0.074500    0.351900      0.875000
     10    0.925500    0.724400    0.351900      0.875000
     10    0.074500    0.275600    0.351900      0.875000
     10    0.775600    0.574500    0.851900      0.875000
     10    0.224400    0.425500    0.851900      0.875000
     10    0.425500    0.775600    0.851900      0.875000
     10    0.574500    0.224400    0.851900      0.875000
     10    0.724400    0.074500    0.648100      0.875000
     10    0.275600    0.925500    0.648100      0.875000
     10    0.074500    0.275600    0.648100      0.875000
     10    0.925500    0.724400    0.648100      0.875000
     11    0.000000    0.000000    0.065100      0.500000
     11    0.500000    0.500000    0.434900      0.500000
     11    0.000000    0.000000    0.934900      0.500000
     11    0.500000    0.500000    0.565100      0.500000
 END_ATOMIC_POSITIONS_OCCUPANCY_
 WATER_IDENTIFICATION_NUMBER_
           8
 END_WATER_IDENTIFICATION_NUMBER_
 HYDROGEN_IDENTIFICATION_NUMBER_
           9          10
 END_HYDROGEN_IDENTIFICATION_NUMBER_
 WATER_MODEL_
 0
 END_WATER_MODEL_
#         379         128
 SYMMETRY_OPERATORS_
   0	 0.00000     0.00000     0.00000     0.00000
   1     1.00000     0.00000     0.00000     0.00000
   1     0.00000     1.00000     0.00000     0.00000
   1     0.00000     0.00000     1.00000     0.00000
   2    -1.00000     0.00000     0.00000     0.00000
   2     0.00000    -1.00000     0.00000     0.00000
   2     0.00000     0.00000     1.00000     0.00000
   3     0.00000    -1.00000     0.00000     0.00000
   3     1.00000     0.00000     0.00000     0.00000
   3     0.00000     0.00000     1.00000     0.00000
   4     0.00000     1.00000     0.00000     0.00000
   4    -1.00000     0.00000     0.00000     0.00000
   4     0.00000     0.00000     1.00000     0.00000
   5    -1.00000     0.00000     0.00000     0.50000
   5     0.00000     1.00000     0.00000     0.50000
   5     0.00000     0.00000    -1.00000     0.50000
   6     1.00000     0.00000     0.00000     0.50000
   6     0.00000    -1.00000     0.00000     0.50000
   6     0.00000     0.00000    -1.00000     0.50000
   7     0.00000     1.00000     0.00000     0.50000
   7     1.00000     0.00000     0.00000     0.50000
   7     0.00000     0.00000    -1.00000     0.50000
   8     0.00000    -1.00000     0.00000     0.50000
   8    -1.00000     0.00000     0.00000     0.50000
   8     0.00000     0.00000    -1.00000     0.50000
   9    -1.00000     0.00000     0.00000     0.00000
   9     0.00000    -1.00000     0.00000     0.00000
   9     0.00000     0.00000    -1.00000     0.00000
  10     1.00000     0.00000     0.00000     0.00000
  10     0.00000     1.00000     0.00000     0.00000
  10     0.00000     0.00000    -1.00000     0.00000
  11     0.00000     1.00000     0.00000     0.00000
  11    -1.00000     0.00000     0.00000     0.00000
  11     0.00000     0.00000    -1.00000     0.00000
  12     0.00000    -1.00000     0.00000     0.00000
  12     1.00000     0.00000     0.00000     0.00000
  12     0.00000     0.00000    -1.00000     0.00000
  13     1.00000     0.00000     0.00000     0.50000
  13     0.00000    -1.00000     0.00000     0.50000
  13     0.00000     0.00000     1.00000     0.50000
  14    -1.00000     0.00000     0.00000     0.50000
  14     0.00000     1.00000     0.00000     0.50000
  14     0.00000     0.00000     1.00000     0.50000
  15     0.00000    -1.00000     0.00000     0.50000
  15    -1.00000     0.00000     0.00000     0.50000
  15     0.00000     0.00000     1.00000     0.50000
  16     0.00000     1.00000     0.00000     0.50000
  16     1.00000     0.00000     0.00000     0.50000
  16     0.00000     0.00000     1.00000     0.50000
 END_SYMMETRY_OPERATORS_
PARAMETERS_
Threshold=0.00005
Max_Angle=0.5
Min_Angle=0.005
Seed=12345
Iteration=1
END_PARAMETERS_
